\* Source Pyomo model name=unknown *\

min 
x201:
+1 x1
+1 x10
+1 x100
+1 x101
+1 x102
+1 x103
+1 x104
+1 x105
+1 x106
+1 x107
+1 x108
+1 x109
+1 x11
+1 x110
+1 x111
+1 x112
+1 x113
+1 x114
+1 x115
+1 x116
+1 x117
+1 x118
+1 x119
+1 x12
+1 x120
+1 x121
+1 x122
+1 x123
+1 x124
+1 x125
+1 x126
+1 x127
+1 x128
+1 x129
+1 x13
+1 x130
+1 x131
+1 x132
+1 x133
+1 x134
+1 x135
+1 x136
+1 x137
+1 x138
+1 x139
+1 x14
+1 x140
+1 x141
+1 x142
+1 x143
+1 x144
+1 x145
+1 x146
+1 x147
+1 x148
+1 x149
+1 x15
+1 x150
+1 x151
+1 x152
+1 x153
+1 x154
+1 x155
+1 x156
+1 x157
+1 x158
+1 x159
+1 x16
+1 x160
+1 x161
+1 x162
+1 x163
+1 x164
+1 x165
+1 x166
+1 x167
+1 x168
+1 x169
+1 x17
+1 x170
+1 x171
+1 x172
+1 x173
+1 x174
+1 x175
+1 x176
+1 x177
+1 x178
+1 x179
+1 x18
+1 x180
+1 x181
+1 x182
+1 x183
+1 x184
+1 x185
+1 x186
+1 x187
+1 x188
+1 x189
+1 x19
+1 x190
+1 x191
+1 x192
+1 x193
+1 x194
+1 x195
+1 x196
+1 x197
+1 x198
+1 x199
+1 x2
+1 x20
+1 x200
+1 x21
+1 x22
+1 x23
+1 x24
+1 x25
+1 x26
+1 x27
+1 x28
+1 x29
+1 x3
+1 x30
+1 x31
+1 x32
+1 x33
+1 x34
+1 x35
+1 x36
+1 x37
+1 x38
+1 x39
+1 x4
+1 x40
+1 x41
+1 x42
+1 x43
+1 x44
+1 x45
+1 x46
+1 x47
+1 x48
+1 x49
+1 x5
+1 x50
+1 x51
+1 x52
+1 x53
+1 x54
+1 x55
+1 x56
+1 x57
+1 x58
+1 x59
+1 x6
+1 x60
+1 x61
+1 x62
+1 x63
+1 x64
+1 x65
+1 x66
+1 x67
+1 x68
+1 x69
+1 x7
+1 x70
+1 x71
+1 x72
+1 x73
+1 x74
+1 x75
+1 x76
+1 x77
+1 x78
+1 x79
+1 x8
+1 x80
+1 x81
+1 x82
+1 x83
+1 x84
+1 x85
+1 x86
+1 x87
+1 x88
+1 x89
+1 x9
+1 x90
+1 x91
+1 x92
+1 x93
+1 x94
+1 x95
+1 x96
+1 x97
+1 x98
+1 x99

s.t.

c_l_x202_:
+1 x1
+1 x42
>= 1

c_l_x203_:
+1 x1
+1 x119
>= 1

c_l_x204_:
+1 x1
+1 x160
>= 1

c_l_x205_:
+1 x153
+1 x2
>= 1

c_l_x206_:
+1 x180
+1 x2
>= 1

c_l_x207_:
+1 x12
+1 x3
>= 1

c_l_x208_:
+1 x3
+1 x51
>= 1

c_l_x209_:
+1 x101
+1 x4
>= 1

c_l_x210_:
+1 x114
+1 x4
>= 1

c_l_x211_:
+1 x137
+1 x4
>= 1

c_l_x212_:
+1 x153
+1 x4
>= 1

c_l_x213_:
+1 x116
+1 x5
>= 1

c_l_x214_:
+1 x161
+1 x5
>= 1

c_l_x215_:
+1 x51
+1 x6
>= 1

c_l_x216_:
+1 x6
+1 x78
>= 1

c_l_x217_:
+1 x31
+1 x7
>= 1

c_l_x218_:
+1 x68
+1 x7
>= 1

c_l_x219_:
+1 x6
+1 x8
>= 1

c_l_x220_:
+1 x57
+1 x8
>= 1

c_l_x221_:
+1 x30
+1 x9
>= 1

c_l_x222_:
+1 x39
+1 x9
>= 1

c_l_x223_:
+1 x111
+1 x9
>= 1

c_l_x224_:
+1 x130
+1 x9
>= 1

c_l_x225_:
+1 x10
+1 x68
>= 1

c_l_x226_:
+1 x10
+1 x176
>= 1

c_l_x227_:
+1 x11
+1 x127
>= 1

c_l_x228_:
+1 x11
+1 x194
>= 1

c_l_x229_:
+1 x111
+1 x12
>= 1

c_l_x230_:
+1 x12
+1 x180
>= 1

c_l_x231_:
+1 x12
+1 x13
>= 1

c_l_x232_:
+1 x13
+1 x95
>= 1

c_l_x233_:
+1 x13
+1 x148
>= 1

c_l_x234_:
+1 x13
+1 x161
>= 1

c_l_x235_:
+1 x14
+1 x68
>= 1

c_l_x236_:
+1 x14
+1 x69
>= 1

c_l_x237_:
+1 x107
+1 x14
>= 1

c_l_x238_:
+1 x14
+1 x165
>= 1

c_l_x239_:
+1 x17
+1 x70
>= 1

c_l_x240_:
+1 x17
+1 x98
>= 1

c_l_x241_:
+1 x18
+1 x3
>= 1

c_l_x242_:
+1 x18
+1 x75
>= 1

c_l_x243_:
+1 x18
+1 x95
>= 1

c_l_x244_:
+1 x100
+1 x18
>= 1

c_l_x245_:
+1 x19
+1 x44
>= 1

c_l_x246_:
+1 x19
+1 x98
>= 1

c_l_x247_:
+1 x148
+1 x19
>= 1

c_l_x248_:
+1 x20
+1 x39
>= 1

c_l_x249_:
+1 x20
+1 x69
>= 1

c_l_x250_:
+1 x20
+1 x74
>= 1

c_l_x251_:
+1 x20
+1 x77
>= 1

c_l_x252_:
+1 x21
+1 x54
>= 1

c_l_x253_:
+1 x21
+1 x85
>= 1

c_l_x254_:
+1 x120
+1 x21
>= 1

c_l_x255_:
+1 x141
+1 x21
>= 1

c_l_x256_:
+1 x22
+1 x52
>= 1

c_l_x257_:
+1 x176
+1 x22
>= 1

c_l_x258_:
+1 x23
+1 x38
>= 1

c_l_x259_:
+1 x23
+1 x71
>= 1

c_l_x260_:
+1 x113
+1 x23
>= 1

c_l_x261_:
+1 x133
+1 x23
>= 1

c_l_x262_:
+1 x24
+1 x78
>= 1

c_l_x263_:
+1 x24
+1 x80
>= 1

c_l_x264_:
+1 x112
+1 x24
>= 1

c_l_x265_:
+1 x171
+1 x24
>= 1

c_l_x266_:
+1 x25
+1 x78
>= 1

c_l_x267_:
+1 x148
+1 x25
>= 1

c_l_x268_:
+1 x172
+1 x25
>= 1

c_l_x269_:
+1 x199
+1 x25
>= 1

c_l_x270_:
+1 x26
+1 x38
>= 1

c_l_x271_:
+1 x140
+1 x26
>= 1

c_l_x272_:
+1 x28
+1 x48
>= 1

c_l_x273_:
+1 x106
+1 x28
>= 1

c_l_x274_:
+1 x140
+1 x28
>= 1

c_l_x275_:
+1 x194
+1 x28
>= 1

c_l_x276_:
+1 x117
+1 x29
>= 1

c_l_x277_:
+1 x168
+1 x29
>= 1

c_l_x278_:
+1 x30
+1 x43
>= 1

c_l_x279_:
+1 x30
+1 x90
>= 1

c_l_x280_:
+1 x166
+1 x30
>= 1

c_l_x281_:
+1 x113
+1 x31
>= 1

c_l_x282_:
+1 x16
+1 x32
>= 1

c_l_x283_:
+1 x133
+1 x32
>= 1

c_l_x284_:
+1 x153
+1 x32
>= 1

c_l_x285_:
+1 x19
+1 x33
>= 1

c_l_x286_:
+1 x33
+1 x58
>= 1

c_l_x287_:
+1 x33
+1 x86
>= 1

c_l_x288_:
+1 x131
+1 x33
>= 1

c_l_x289_:
+1 x34
+1 x49
>= 1

c_l_x290_:
+1 x106
+1 x34
>= 1

c_l_x291_:
+1 x2
+1 x35
>= 1

c_l_x292_:
+1 x35
+1 x49
>= 1

c_l_x293_:
+1 x137
+1 x35
>= 1

c_l_x294_:
+1 x36
+1 x37
>= 1

c_l_x295_:
+1 x36
+1 x69
>= 1

c_l_x296_:
+1 x37
+1 x78
>= 1

c_l_x297_:
+1 x180
+1 x38
>= 1

c_l_x298_:
+1 x23
+1 x39
>= 1

c_l_x299_:
+1 x39
+1 x44
>= 1

c_l_x300_:
+1 x15
+1 x40
>= 1

c_l_x301_:
+1 x40
+1 x48
>= 1

c_l_x302_:
+1 x40
+1 x59
>= 1

c_l_x303_:
+1 x40
+1 x95
>= 1

c_l_x304_:
+1 x43
+1 x50
>= 1

c_l_x305_:
+1 x43
+1 x99
>= 1

c_l_x306_:
+1 x143
+1 x43
>= 1

c_l_x307_:
+1 x44
+1 x51
>= 1

c_l_x308_:
+1 x44
+1 x57
>= 1

c_l_x309_:
+1 x44
+1 x89
>= 1

c_l_x310_:
+1 x45
+1 x7
>= 1

c_l_x311_:
+1 x45
+1 x94
>= 1

c_l_x312_:
+1 x131
+1 x45
>= 1

c_l_x313_:
+1 x149
+1 x45
>= 1

c_l_x314_:
+1 x17
+1 x46
>= 1

c_l_x315_:
+1 x46
+1 x99
>= 1

c_l_x316_:
+1 x123
+1 x46
>= 1

c_l_x317_:
+1 x131
+1 x46
>= 1

c_l_x318_:
+1 x47
+1 x50
>= 1

c_l_x319_:
+1 x47
+1 x89
>= 1

c_l_x320_:
+1 x2
+1 x49
>= 1

c_l_x321_:
+1 x31
+1 x49
>= 1

c_l_x322_:
+1 x27
+1 x50
>= 1

c_l_x323_:
+1 x108
+1 x50
>= 1

c_l_x324_:
+1 x160
+1 x50
>= 1

c_l_x325_:
+1 x171
+1 x51
>= 1

c_l_x326_:
+1 x114
+1 x53
>= 1

c_l_x327_:
+1 x174
+1 x53
>= 1

c_l_x328_:
+1 x54
+1 x68
>= 1

c_l_x329_:
+1 x156
+1 x54
>= 1

c_l_x330_:
+1 x5
+1 x55
>= 1

c_l_x331_:
+1 x37
+1 x55
>= 1

c_l_x332_:
+1 x158
+1 x55
>= 1

c_l_x333_:
+1 x42
+1 x56
>= 1

c_l_x334_:
+1 x47
+1 x56
>= 1

c_l_x335_:
+1 x56
+1 x80
>= 1

c_l_x336_:
+1 x154
+1 x56
>= 1

c_l_x337_:
+1 x41
+1 x57
>= 1

c_l_x338_:
+1 x127
+1 x57
>= 1

c_l_x339_:
+1 x171
+1 x58
>= 1

c_l_x340_:
+1 x125
+1 x59
>= 1

c_l_x341_:
+1 x154
+1 x59
>= 1

c_l_x342_:
+1 x159
+1 x59
>= 1

c_l_x343_:
+1 x51
+1 x60
>= 1

c_l_x344_:
+1 x60
+1 x76
>= 1

c_l_x345_:
+1 x170
+1 x60
>= 1

c_l_x346_:
+1 x173
+1 x60
>= 1

c_l_x347_:
+1 x4
+1 x61
>= 1

c_l_x348_:
+1 x36
+1 x61
>= 1

c_l_x349_:
+1 x61
+1 x88
>= 1

c_l_x350_:
+1 x55
+1 x62
>= 1

c_l_x351_:
+1 x62
+1 x95
>= 1

c_l_x352_:
+1 x126
+1 x62
>= 1

c_l_x353_:
+1 x153
+1 x62
>= 1

c_l_x354_:
+1 x55
+1 x63
>= 1

c_l_x355_:
+1 x63
+1 x97
>= 1

c_l_x356_:
+1 x118
+1 x63
>= 1

c_l_x357_:
+1 x181
+1 x63
>= 1

c_l_x358_:
+1 x64
+1 x72
>= 1

c_l_x359_:
+1 x64
+1 x87
>= 1

c_l_x360_:
+1 x64
+1 x98
>= 1

c_l_x361_:
+1 x152
+1 x64
>= 1

c_l_x362_:
+1 x54
+1 x65
>= 1

c_l_x363_:
+1 x65
+1 x80
>= 1

c_l_x364_:
+1 x128
+1 x65
>= 1

c_l_x365_:
+1 x193
+1 x65
>= 1

c_l_x366_:
+1 x40
+1 x66
>= 1

c_l_x367_:
+1 x110
+1 x66
>= 1

c_l_x368_:
+1 x177
+1 x66
>= 1

c_l_x369_:
+1 x197
+1 x66
>= 1

c_l_x370_:
+1 x6
+1 x67
>= 1

c_l_x371_:
+1 x61
+1 x67
>= 1

c_l_x372_:
+1 x67
+1 x72
>= 1

c_l_x373_:
+1 x67
+1 x84
>= 1

c_l_x374_:
+1 x176
+1 x69
>= 1

c_l_x375_:
+1 x16
+1 x70
>= 1

c_l_x376_:
+1 x159
+1 x70
>= 1

c_l_x377_:
+1 x3
+1 x73
>= 1

c_l_x378_:
+1 x73
+1 x87
>= 1

c_l_x379_:
+1 x127
+1 x73
>= 1

c_l_x380_:
+1 x153
+1 x73
>= 1

c_l_x381_:
+1 x57
+1 x74
>= 1

c_l_x382_:
+1 x115
+1 x74
>= 1

c_l_x383_:
+1 x115
+1 x75
>= 1

c_l_x384_:
+1 x178
+1 x75
>= 1

c_l_x385_:
+1 x52
+1 x76
>= 1

c_l_x386_:
+1 x159
+1 x76
>= 1

c_l_x387_:
+1 x193
+1 x76
>= 1

c_l_x388_:
+1 x16
+1 x77
>= 1

c_l_x389_:
+1 x113
+1 x77
>= 1

c_l_x390_:
+1 x127
+1 x77
>= 1

c_l_x391_:
+1 x27
+1 x78
>= 1

c_l_x392_:
+1 x21
+1 x79
>= 1

c_l_x393_:
+1 x79
+1 x82
>= 1

c_l_x394_:
+1 x111
+1 x79
>= 1

c_l_x395_:
+1 x170
+1 x79
>= 1

c_l_x396_:
+1 x6
+1 x81
>= 1

c_l_x397_:
+1 x27
+1 x81
>= 1

c_l_x398_:
+1 x114
+1 x81
>= 1

c_l_x399_:
+1 x171
+1 x81
>= 1

c_l_x400_:
+1 x41
+1 x82
>= 1

c_l_x401_:
+1 x52
+1 x82
>= 1

c_l_x402_:
+1 x166
+1 x82
>= 1

c_l_x403_:
+1 x193
+1 x82
>= 1

c_l_x404_:
+1 x26
+1 x83
>= 1

c_l_x405_:
+1 x83
+1 x93
>= 1

c_l_x406_:
+1 x178
+1 x83
>= 1

c_l_x407_:
+1 x8
+1 x84
>= 1

c_l_x408_:
+1 x144
+1 x84
>= 1

c_l_x409_:
+1 x165
+1 x85
>= 1

c_l_x410_:
+1 x58
+1 x86
>= 1

c_l_x411_:
+1 x128
+1 x87
>= 1

c_l_x412_:
+1 x131
+1 x87
>= 1

c_l_x413_:
+1 x48
+1 x88
>= 1

c_l_x414_:
+1 x58
+1 x88
>= 1

c_l_x415_:
+1 x130
+1 x88
>= 1

c_l_x416_:
+1 x155
+1 x88
>= 1

c_l_x417_:
+1 x9
+1 x91
>= 1

c_l_x418_:
+1 x28
+1 x91
>= 1

c_l_x419_:
+1 x63
+1 x91
>= 1

c_l_x420_:
+1 x129
+1 x91
>= 1

c_l_x421_:
+1 x185
+1 x91
>= 1

c_l_x422_:
+1 x71
+1 x92
>= 1

c_l_x423_:
+1 x156
+1 x92
>= 1

c_l_x424_:
+1 x8
+1 x93
>= 1

c_l_x425_:
+1 x155
+1 x93
>= 1

c_l_x426_:
+1 x10
+1 x94
>= 1

c_l_x427_:
+1 x3
+1 x96
>= 1

c_l_x428_:
+1 x5
+1 x96
>= 1

c_l_x429_:
+1 x39
+1 x96
>= 1

c_l_x430_:
+1 x135
+1 x96
>= 1

c_l_x431_:
+1 x29
+1 x97
>= 1

c_l_x432_:
+1 x137
+1 x97
>= 1

c_l_x433_:
+1 x170
+1 x97
>= 1

c_l_x434_:
+1 x108
+1 x99
>= 1

c_l_x435_:
+1 x193
+1 x99
>= 1

c_l_x436_:
+1 x100
+1 x70
>= 1

c_l_x437_:
+1 x100
+1 x135
>= 1

c_l_x438_:
+1 x101
+1 x26
>= 1

c_l_x439_:
+1 x101
+1 x34
>= 1

c_l_x440_:
+1 x101
+1 x128
>= 1

c_l_x441_:
+1 x102
+1 x141
>= 1

c_l_x442_:
+1 x102
+1 x149
>= 1

c_l_x443_:
+1 x102
+1 x150
>= 1

c_l_x444_:
+1 x102
+1 x166
>= 1

c_l_x445_:
+1 x103
+1 x5
>= 1

c_l_x446_:
+1 x103
+1 x136
>= 1

c_l_x447_:
+1 x103
+1 x152
>= 1

c_l_x448_:
+1 x103
+1 x167
>= 1

c_l_x449_:
+1 x104
+1 x90
>= 1

c_l_x450_:
+1 x104
+1 x94
>= 1

c_l_x451_:
+1 x104
+1 x97
>= 1

c_l_x452_:
+1 x104
+1 x126
>= 1

c_l_x453_:
+1 x105
+1 x11
>= 1

c_l_x454_:
+1 x105
+1 x17
>= 1

c_l_x455_:
+1 x105
+1 x47
>= 1

c_l_x456_:
+1 x105
+1 x156
>= 1

c_l_x457_:
+1 x107
+1 x8
>= 1

c_l_x458_:
+1 x107
+1 x85
>= 1

c_l_x459_:
+1 x106
+1 x107
>= 1

c_l_x460_:
+1 x108
+1 x71
>= 1

c_l_x461_:
+1 x109
+1 x45
>= 1

c_l_x462_:
+1 x109
+1 x122
>= 1

c_l_x463_:
+1 x110
+1 x77
>= 1

c_l_x464_:
+1 x110
+1 x133
>= 1

c_l_x465_:
+1 x110
+1 x142
>= 1

c_l_x466_:
+1 x110
+1 x148
>= 1

c_l_x467_:
+1 x111
+1 x56
>= 1

c_l_x468_:
+1 x112
+1 x68
>= 1

c_l_x469_:
+1 x112
+1 x80
>= 1

c_l_x470_:
+1 x114
+1 x165
>= 1

c_l_x471_:
+1 x115
+1 x154
>= 1

c_l_x472_:
+1 x115
+1 x193
>= 1

c_l_x473_:
+1 x10
+1 x116
>= 1

c_l_x474_:
+1 x116
+1 x42
>= 1

c_l_x475_:
+1 x112
+1 x116
>= 1

c_l_x476_:
+1 x117
+1 x52
>= 1

c_l_x477_:
+1 x117
+1 x54
>= 1

c_l_x478_:
+1 x117
+1 x86
>= 1

c_l_x479_:
+1 x118
+1 x48
>= 1

c_l_x480_:
+1 x118
+1 x75
>= 1

c_l_x481_:
+1 x118
+1 x95
>= 1

c_l_x482_:
+1 x114
+1 x118
>= 1

c_l_x483_:
+1 x119
+1 x27
>= 1

c_l_x484_:
+1 x120
+1 x22
>= 1

c_l_x485_:
+1 x120
+1 x70
>= 1

c_l_x486_:
+1 x120
+1 x160
>= 1

c_l_x487_:
+1 x121
+1 x17
>= 1

c_l_x488_:
+1 x121
+1 x92
>= 1

c_l_x489_:
+1 x121
+1 x146
>= 1

c_l_x490_:
+1 x121
+1 x194
>= 1

c_l_x491_:
+1 x122
+1 x93
>= 1

c_l_x492_:
+1 x111
+1 x122
>= 1

c_l_x493_:
+1 x122
+1 x164
>= 1

c_l_x494_:
+1 x123
+1 x90
>= 1

c_l_x495_:
+1 x123
+1 x93
>= 1

c_l_x496_:
+1 x124
+1 x60
>= 1

c_l_x497_:
+1 x101
+1 x124
>= 1

c_l_x498_:
+1 x124
+1 x125
>= 1

c_l_x499_:
+1 x124
+1 x163
>= 1

c_l_x500_:
+1 x125
+1 x43
>= 1

c_l_x501_:
+1 x125
+1 x94
>= 1

c_l_x502_:
+1 x122
+1 x125
>= 1

c_l_x503_:
+1 x126
+1 x170
>= 1

c_l_x504_:
+1 x113
+1 x127
>= 1

c_l_x505_:
+1 x129
+1 x29
>= 1

c_l_x506_:
+1 x129
+1 x32
>= 1

c_l_x507_:
+1 x129
+1 x134
>= 1

c_l_x508_:
+1 x129
+1 x187
>= 1

c_l_x509_:
+1 x130
+1 x30
>= 1

c_l_x510_:
+1 x130
+1 x76
>= 1

c_l_x511_:
+1 x131
+1 x71
>= 1

c_l_x512_:
+1 x132
+1 x29
>= 1

c_l_x513_:
+1 x132
+1 x94
>= 1

c_l_x514_:
+1 x132
+1 x135
>= 1

c_l_x515_:
+1 x132
+1 x147
>= 1

c_l_x516_:
+1 x134
+1 x19
>= 1

c_l_x517_:
+1 x109
+1 x134
>= 1

c_l_x518_:
+1 x117
+1 x134
>= 1

c_l_x519_:
+1 x134
+1 x144
>= 1

c_l_x520_:
+1 x10
+1 x135
>= 1

c_l_x521_:
+1 x112
+1 x135
>= 1

c_l_x522_:
+1 x107
+1 x136
>= 1

c_l_x523_:
+1 x124
+1 x136
>= 1

c_l_x524_:
+1 x136
+1 x173
>= 1

c_l_x525_:
+1 x136
+1 x199
>= 1

c_l_x526_:
+1 x138
+1 x37
>= 1

c_l_x527_:
+1 x138
+1 x48
>= 1

c_l_x528_:
+1 x138
+1 x159
>= 1

c_l_x529_:
+1 x138
+1 x176
>= 1

c_l_x530_:
+1 x126
+1 x139
>= 1

c_l_x531_:
+1 x139
+1 x146
>= 1

c_l_x532_:
+1 x139
+1 x157
>= 1

c_l_x533_:
+1 x139
+1 x165
>= 1

c_l_x534_:
+1 x140
+1 x2
>= 1

c_l_x535_:
+1 x140
+1 x31
>= 1

c_l_x536_:
+1 x140
+1 x42
>= 1

c_l_x537_:
+1 x141
+1 x145
>= 1

c_l_x538_:
+1 x141
+1 x164
>= 1

c_l_x539_:
+1 x142
+1 x47
>= 1

c_l_x540_:
+1 x142
+1 x98
>= 1

c_l_x541_:
+1 x142
+1 x156
>= 1

c_l_x542_:
+1 x143
+1 x31
>= 1

c_l_x543_:
+1 x143
+1 x35
>= 1

c_l_x544_:
+1 x143
+1 x171
>= 1

c_l_x545_:
+1 x144
+1 x69
>= 1

c_l_x546_:
+1 x144
+1 x98
>= 1

c_l_x547_:
+1 x119
+1 x144
>= 1

c_l_x548_:
+1 x128
+1 x145
>= 1

c_l_x549_:
+1 x137
+1 x145
>= 1

c_l_x550_:
+1 x146
+1 x15
>= 1

c_l_x551_:
+1 x146
+1 x156
>= 1

c_l_x552_:
+1 x147
+1 x42
>= 1

c_l_x553_:
+1 x147
+1 x159
>= 1

c_l_x554_:
+1 x148
+1 x180
>= 1

c_l_x555_:
+1 x128
+1 x149
>= 1

c_l_x556_:
+1 x149
+1 x155
>= 1

c_l_x557_:
+1 x149
+1 x164
>= 1

c_l_x558_:
+1 x12
+1 x150
>= 1

c_l_x559_:
+1 x150
+1 x24
>= 1

c_l_x560_:
+1 x150
+1 x86
>= 1

c_l_x561_:
+1 x150
+1 x87
>= 1

c_l_x562_:
+1 x151
+1 x67
>= 1

c_l_x563_:
+1 x151
+1 x175
>= 1

c_l_x564_:
+1 x151
+1 x186
>= 1

c_l_x565_:
+1 x151
+1 x200
>= 1

c_l_x566_:
+1 x152
+1 x7
>= 1

c_l_x567_:
+1 x152
+1 x32
>= 1

c_l_x568_:
+1 x152
+1 x86
>= 1

c_l_x569_:
+1 x108
+1 x154
>= 1

c_l_x570_:
+1 x155
+1 x16
>= 1

c_l_x571_:
+1 x157
+1 x25
>= 1

c_l_x572_:
+1 x157
+1 x46
>= 1

c_l_x573_:
+1 x157
+1 x81
>= 1

c_l_x574_:
+1 x151
+1 x157
>= 1

c_l_x575_:
+1 x158
+1 x49
>= 1

c_l_x576_:
+1 x158
+1 x92
>= 1

c_l_x577_:
+1 x133
+1 x158
>= 1

c_l_x578_:
+1 x160
+1 x7
>= 1

c_l_x579_:
+1 x106
+1 x160
>= 1

c_l_x580_:
+1 x115
+1 x161
>= 1

c_l_x581_:
+1 x13
+1 x162
>= 1

c_l_x582_:
+1 x162
+1 x33
>= 1

c_l_x583_:
+1 x162
+1 x188
>= 1

c_l_x584_:
+1 x162
+1 x192
>= 1

c_l_x585_:
+1 x163
+1 x74
>= 1

c_l_x586_:
+1 x163
+1 x85
>= 1

c_l_x587_:
+1 x108
+1 x163
>= 1

c_l_x588_:
+1 x141
+1 x163
>= 1

c_l_x589_:
+1 x164
+1 x90
>= 1

c_l_x590_:
+1 x119
+1 x164
>= 1

c_l_x591_:
+1 x166
+1 x72
>= 1

c_l_x592_:
+1 x166
+1 x99
>= 1

c_l_x593_:
+1 x167
+1 x75
>= 1

c_l_x594_:
+1 x106
+1 x167
>= 1

c_l_x595_:
+1 x113
+1 x167
>= 1

c_l_x596_:
+1 x119
+1 x167
>= 1

c_l_x597_:
+1 x168
+1 x22
>= 1

c_l_x598_:
+1 x168
+1 x38
>= 1

c_l_x599_:
+1 x168
+1 x89
>= 1

c_l_x600_:
+1 x147
+1 x168
>= 1

c_l_x601_:
+1 x11
+1 x169
>= 1

c_l_x602_:
+1 x169
+1 x53
>= 1

c_l_x603_:
+1 x169
+1 x59
>= 1

c_l_x604_:
+1 x109
+1 x169
>= 1

c_l_x605_:
+1 x170
+1 x37
>= 1

c_l_x606_:
+1 x172
+1 x18
>= 1

c_l_x607_:
+1 x121
+1 x172
>= 1

c_l_x608_:
+1 x173
+1 x92
>= 1

c_l_x609_:
+1 x172
+1 x173
>= 1

c_l_x610_:
+1 x173
+1 x194
>= 1

c_l_x611_:
+1 x15
+1 x174
>= 1

c_l_x612_:
+1 x174
+1 x35
>= 1

c_l_x613_:
+1 x137
+1 x174
>= 1

c_l_x614_:
+1 x175
+1 x84
>= 1

c_l_x615_:
+1 x123
+1 x175
>= 1

c_l_x616_:
+1 x133
+1 x175
>= 1

c_l_x617_:
+1 x142
+1 x175
>= 1

c_l_x618_:
+1 x176
+1 x71
>= 1

c_l_x619_:
+1 x15
+1 x177
>= 1

c_l_x620_:
+1 x177
+1 x27
>= 1

c_l_x621_:
+1 x177
+1 x38
>= 1

c_l_x622_:
+1 x178
+1 x72
>= 1

c_l_x623_:
+1 x143
+1 x178
>= 1

c_l_x624_:
+1 x179
+1 x36
>= 1

c_l_x625_:
+1 x179
+1 x41
>= 1

c_l_x626_:
+1 x100
+1 x179
>= 1

c_l_x627_:
+1 x138
+1 x179
>= 1

c_l_x628_:
+1 x154
+1 x180
>= 1

c_l_x629_:
+1 x1
+1 x181
>= 1

c_l_x630_:
+1 x11
+1 x181
>= 1

c_l_x631_:
+1 x181
+1 x41
>= 1

c_l_x632_:
+1 x181
+1 x196
>= 1

c_l_x633_:
+1 x1
+1 x182
>= 1

c_l_x634_:
+1 x155
+1 x182
>= 1

c_l_x635_:
+1 x161
+1 x182
>= 1

c_l_x636_:
+1 x177
+1 x182
>= 1

c_l_x637_:
+1 x183
+1 x34
>= 1

c_l_x638_:
+1 x183
+1 x74
>= 1

c_l_x639_:
+1 x116
+1 x183
>= 1

c_l_x640_:
+1 x145
+1 x183
>= 1

c_l_x641_:
+1 x184
+1 x62
>= 1

c_l_x642_:
+1 x139
+1 x184
>= 1

c_l_x643_:
+1 x182
+1 x184
>= 1

c_l_x644_:
+1 x184
+1 x198
>= 1

c_l_x645_:
+1 x16
+1 x185
>= 1

c_l_x646_:
+1 x185
+1 x22
>= 1

c_l_x647_:
+1 x185
+1 x89
>= 1

c_l_x648_:
+1 x185
+1 x90
>= 1

c_l_x649_:
+1 x100
+1 x186
>= 1

c_l_x650_:
+1 x145
+1 x186
>= 1

c_l_x651_:
+1 x174
+1 x186
>= 1

c_l_x652_:
+1 x178
+1 x186
>= 1

c_l_x653_:
+1 x187
+1 x41
>= 1

c_l_x654_:
+1 x187
+1 x58
>= 1

c_l_x655_:
+1 x187
+1 x72
>= 1

c_l_x656_:
+1 x146
+1 x187
>= 1

c_l_x657_:
+1 x188
+1 x20
>= 1

c_l_x658_:
+1 x188
+1 x64
>= 1

c_l_x659_:
+1 x132
+1 x188
>= 1

c_l_x660_:
+1 x188
+1 x189
>= 1

c_l_x661_:
+1 x189
+1 x53
>= 1

c_l_x662_:
+1 x189
+1 x89
>= 1

c_l_x663_:
+1 x189
+1 x194
>= 1

c_l_x664_:
+1 x14
+1 x190
>= 1

c_l_x665_:
+1 x190
+1 x96
>= 1

c_l_x666_:
+1 x102
+1 x190
>= 1

c_l_x667_:
+1 x162
+1 x190
>= 1

c_l_x668_:
+1 x184
+1 x190
>= 1

c_l_x669_:
+1 x191
+1 x61
>= 1

c_l_x670_:
+1 x191
+1 x84
>= 1

c_l_x671_:
+1 x158
+1 x191
>= 1

c_l_x672_:
+1 x179
+1 x191
>= 1

c_l_x673_:
+1 x183
+1 x191
>= 1

c_l_x674_:
+1 x192
+1 x34
>= 1

c_l_x675_:
+1 x192
+1 x79
>= 1

c_l_x676_:
+1 x123
+1 x192
>= 1

c_l_x677_:
+1 x172
+1 x192
>= 1

c_l_x678_:
+1 x195
+1 x66
>= 1

c_l_x679_:
+1 x195
+1 x73
>= 1

c_l_x680_:
+1 x104
+1 x195
>= 1

c_l_x681_:
+1 x126
+1 x195
>= 1

c_l_x682_:
+1 x169
+1 x195
>= 1

c_l_x683_:
+1 x196
+1 x65
>= 1

c_l_x684_:
+1 x196
+1 x83
>= 1

c_l_x685_:
+1 x103
+1 x196
>= 1

c_l_x686_:
+1 x105
+1 x196
>= 1

c_l_x687_:
+1 x197
+1 x26
>= 1

c_l_x688_:
+1 x197
+1 x36
>= 1

c_l_x689_:
+1 x197
+1 x53
>= 1

c_l_x690_:
+1 x197
+1 x80
>= 1

c_l_x691_:
+1 x198
+1 x83
>= 1

c_l_x692_:
+1 x120
+1 x198
>= 1

c_l_x693_:
+1 x165
+1 x198
>= 1

c_l_x694_:
+1 x189
+1 x198
>= 1

c_l_x695_:
+1 x15
+1 x199
>= 1

c_l_x696_:
+1 x199
+1 x52
>= 1

c_l_x697_:
+1 x130
+1 x199
>= 1

c_l_x698_:
+1 x200
+1 x85
>= 1

c_l_x699_:
+1 x109
+1 x200
>= 1

c_l_x700_:
+1 x147
+1 x200
>= 1

c_l_x701_:
+1 x161
+1 x200
>= 1

c_e_ONE_VAR_CONSTANT: 
ONE_VAR_CONSTANT = 1.0

bounds
   0 <= x1 <= 1
   0 <= x2 <= 1
   0 <= x3 <= 1
   0 <= x4 <= 1
   0 <= x5 <= 1
   0 <= x6 <= 1
   0 <= x7 <= 1
   0 <= x8 <= 1
   0 <= x9 <= 1
   0 <= x10 <= 1
   0 <= x11 <= 1
   0 <= x12 <= 1
   0 <= x13 <= 1
   0 <= x14 <= 1
   0 <= x15 <= 1
   0 <= x16 <= 1
   0 <= x17 <= 1
   0 <= x18 <= 1
   0 <= x19 <= 1
   0 <= x20 <= 1
   0 <= x21 <= 1
   0 <= x22 <= 1
   0 <= x23 <= 1
   0 <= x24 <= 1
   0 <= x25 <= 1
   0 <= x26 <= 1
   0 <= x27 <= 1
   0 <= x28 <= 1
   0 <= x29 <= 1
   0 <= x30 <= 1
   0 <= x31 <= 1
   0 <= x32 <= 1
   0 <= x33 <= 1
   0 <= x34 <= 1
   0 <= x35 <= 1
   0 <= x36 <= 1
   0 <= x37 <= 1
   0 <= x38 <= 1
   0 <= x39 <= 1
   0 <= x40 <= 1
   0 <= x41 <= 1
   0 <= x42 <= 1
   0 <= x43 <= 1
   0 <= x44 <= 1
   0 <= x45 <= 1
   0 <= x46 <= 1
   0 <= x47 <= 1
   0 <= x48 <= 1
   0 <= x49 <= 1
   0 <= x50 <= 1
   0 <= x51 <= 1
   0 <= x52 <= 1
   0 <= x53 <= 1
   0 <= x54 <= 1
   0 <= x55 <= 1
   0 <= x56 <= 1
   0 <= x57 <= 1
   0 <= x58 <= 1
   0 <= x59 <= 1
   0 <= x60 <= 1
   0 <= x61 <= 1
   0 <= x62 <= 1
   0 <= x63 <= 1
   0 <= x64 <= 1
   0 <= x65 <= 1
   0 <= x66 <= 1
   0 <= x67 <= 1
   0 <= x68 <= 1
   0 <= x69 <= 1
   0 <= x70 <= 1
   0 <= x71 <= 1
   0 <= x72 <= 1
   0 <= x73 <= 1
   0 <= x74 <= 1
   0 <= x75 <= 1
   0 <= x76 <= 1
   0 <= x77 <= 1
   0 <= x78 <= 1
   0 <= x79 <= 1
   0 <= x80 <= 1
   0 <= x81 <= 1
   0 <= x82 <= 1
   0 <= x83 <= 1
   0 <= x84 <= 1
   0 <= x85 <= 1
   0 <= x86 <= 1
   0 <= x87 <= 1
   0 <= x88 <= 1
   0 <= x89 <= 1
   0 <= x90 <= 1
   0 <= x91 <= 1
   0 <= x92 <= 1
   0 <= x93 <= 1
   0 <= x94 <= 1
   0 <= x95 <= 1
   0 <= x96 <= 1
   0 <= x97 <= 1
   0 <= x98 <= 1
   0 <= x99 <= 1
   0 <= x100 <= 1
   0 <= x101 <= 1
   0 <= x102 <= 1
   0 <= x103 <= 1
   0 <= x104 <= 1
   0 <= x105 <= 1
   0 <= x106 <= 1
   0 <= x107 <= 1
   0 <= x108 <= 1
   0 <= x109 <= 1
   0 <= x110 <= 1
   0 <= x111 <= 1
   0 <= x112 <= 1
   0 <= x113 <= 1
   0 <= x114 <= 1
   0 <= x115 <= 1
   0 <= x116 <= 1
   0 <= x117 <= 1
   0 <= x118 <= 1
   0 <= x119 <= 1
   0 <= x120 <= 1
   0 <= x121 <= 1
   0 <= x122 <= 1
   0 <= x123 <= 1
   0 <= x124 <= 1
   0 <= x125 <= 1
   0 <= x126 <= 1
   0 <= x127 <= 1
   0 <= x128 <= 1
   0 <= x129 <= 1
   0 <= x130 <= 1
   0 <= x131 <= 1
   0 <= x132 <= 1
   0 <= x133 <= 1
   0 <= x134 <= 1
   0 <= x135 <= 1
   0 <= x136 <= 1
   0 <= x137 <= 1
   0 <= x138 <= 1
   0 <= x139 <= 1
   0 <= x140 <= 1
   0 <= x141 <= 1
   0 <= x142 <= 1
   0 <= x143 <= 1
   0 <= x144 <= 1
   0 <= x145 <= 1
   0 <= x146 <= 1
   0 <= x147 <= 1
   0 <= x148 <= 1
   0 <= x149 <= 1
   0 <= x150 <= 1
   0 <= x151 <= 1
   0 <= x152 <= 1
   0 <= x153 <= 1
   0 <= x154 <= 1
   0 <= x155 <= 1
   0 <= x156 <= 1
   0 <= x157 <= 1
   0 <= x158 <= 1
   0 <= x159 <= 1
   0 <= x160 <= 1
   0 <= x161 <= 1
   0 <= x162 <= 1
   0 <= x163 <= 1
   0 <= x164 <= 1
   0 <= x165 <= 1
   0 <= x166 <= 1
   0 <= x167 <= 1
   0 <= x168 <= 1
   0 <= x169 <= 1
   0 <= x170 <= 1
   0 <= x171 <= 1
   0 <= x172 <= 1
   0 <= x173 <= 1
   0 <= x174 <= 1
   0 <= x175 <= 1
   0 <= x176 <= 1
   0 <= x177 <= 1
   0 <= x178 <= 1
   0 <= x179 <= 1
   0 <= x180 <= 1
   0 <= x181 <= 1
   0 <= x182 <= 1
   0 <= x183 <= 1
   0 <= x184 <= 1
   0 <= x185 <= 1
   0 <= x186 <= 1
   0 <= x187 <= 1
   0 <= x188 <= 1
   0 <= x189 <= 1
   0 <= x190 <= 1
   0 <= x191 <= 1
   0 <= x192 <= 1
   0 <= x193 <= 1
   0 <= x194 <= 1
   0 <= x195 <= 1
   0 <= x196 <= 1
   0 <= x197 <= 1
   0 <= x198 <= 1
   0 <= x199 <= 1
   0 <= x200 <= 1
binary
  x1
  x2
  x3
  x4
  x5
  x6
  x7
  x8
  x9
  x10
  x11
  x12
  x13
  x14
  x15
  x16
  x17
  x18
  x19
  x20
  x21
  x22
  x23
  x24
  x25
  x26
  x27
  x28
  x29
  x30
  x31
  x32
  x33
  x34
  x35
  x36
  x37
  x38
  x39
  x40
  x41
  x42
  x43
  x44
  x45
  x46
  x47
  x48
  x49
  x50
  x51
  x52
  x53
  x54
  x55
  x56
  x57
  x58
  x59
  x60
  x61
  x62
  x63
  x64
  x65
  x66
  x67
  x68
  x69
  x70
  x71
  x72
  x73
  x74
  x75
  x76
  x77
  x78
  x79
  x80
  x81
  x82
  x83
  x84
  x85
  x86
  x87
  x88
  x89
  x90
  x91
  x92
  x93
  x94
  x95
  x96
  x97
  x98
  x99
  x100
  x101
  x102
  x103
  x104
  x105
  x106
  x107
  x108
  x109
  x110
  x111
  x112
  x113
  x114
  x115
  x116
  x117
  x118
  x119
  x120
  x121
  x122
  x123
  x124
  x125
  x126
  x127
  x128
  x129
  x130
  x131
  x132
  x133
  x134
  x135
  x136
  x137
  x138
  x139
  x140
  x141
  x142
  x143
  x144
  x145
  x146
  x147
  x148
  x149
  x150
  x151
  x152
  x153
  x154
  x155
  x156
  x157
  x158
  x159
  x160
  x161
  x162
  x163
  x164
  x165
  x166
  x167
  x168
  x169
  x170
  x171
  x172
  x173
  x174
  x175
  x176
  x177
  x178
  x179
  x180
  x181
  x182
  x183
  x184
  x185
  x186
  x187
  x188
  x189
  x190
  x191
  x192
  x193
  x194
  x195
  x196
  x197
  x198
  x199
  x200
end
